1289070
33,64,97,53,45,27,10,22,15,57,26,1,41,87,14,82,75,37,49,34,96,90,48,9,5,68,74,55,17,40,76,19,29,61,59,92,30,62,12,31,95,20,69,73,36,0,32,56,94,46,8,47,86,71,35,79,98,67,54,43,52,7,88,84,63,2,4,60,81,66,44,3,80,85,65,6,38,13,91,83,72,21,51,42,23,58,89,11,39,78,93,77,50,24,25,28,16,18,70